certificates/rado_a7_c96_N16.cnf
c Rad2 upper bound instance: x1 + 7*x2 - x3 = 96, interval [1,16]
p cnf 16 70
1 3 14 0
-1 -3 -14 0
1 10 15 0
-1 -10 -15 0
2 4 14 0
-2 -4 -14 0
2 11 15 0
-2 -11 -15 0
3 5 14 0
-3 -5 -14 0
3 12 15 0
-3 -12 -15 0
4 6 14 0
-4 -6 -14 0
4 13 15 0
-4 -13 -15 0
5 7 14 0
-5 -7 -14 0
5 14 15 0
-5 -14 -15 0
1 6 13 0
-1 -6 -13 0
6 8 14 0
-6 -8 -14 0
6 15 0
-6 -15 0
2 7 13 0
-2 -7 -13 0
7 9 14 0
-7 -9 -14 0
7 15 16 0
-7 -15 -16 0
3 8 13 0
-3 -8 -13 0
8 10 14 0
-8 -10 -14 0
4 9 13 0
-4 -9 -13 0
9 11 14 0
-9 -11 -14 0
5 10 13 0
-5 -10 -13 0
10 12 14 0
-10 -12 -14 0
6 11 13 0
-6 -11 -13 0
11 13 14 0
-11 -13 -14 0
7 12 13 0
-7 -12 -13 0
12 14 0
-12 -14 0
1 12 13 0
-1 -12 -13 0
8 13 0
-8 -13 0
13 14 15 0
-13 -14 -15 0
2 12 14 0
-2 -12 -14 0
9 13 14 0
-9 -13 -14 0
14 16 0
-14 -16 0
10 13 15 0
-10 -13 -15 0
4 12 16 0
-4 -12 -16 0
11 13 16 0
-11 -13 -16 0
