certificates/rado_a7_c96_N16.drat
4 14 0
d 4 6 14 0
-16 0
14 0
-12 0
4 0
-2 0
-6 0
15 0
-5 0
-13 0
10 0
8 0
11 0
1 0
7 0
0
